c generated by sgen
p cnf 89 188
-2 -3 -4 0
-1 -3 -4 0
-1 -2 -4 0
-1 -2 -3 0
-6 -7 -8 0
-5 -7 -8 0
-5 -6 -8 0
-5 -6 -7 0
-10 -11 -12 0
-9 -11 -12 0
-9 -10 -12 0
-9 -10 -11 0
-14 -15 -16 0
-13 -15 -16 0
-13 -14 -16 0
-13 -14 -15 0
-18 -19 -20 0
-17 -19 -20 0
-17 -18 -20 0
-17 -18 -19 0
-22 -23 -24 0
-21 -23 -24 0
-21 -22 -24 0
-21 -22 -23 0
-26 -27 -28 0
-25 -27 -28 0
-25 -26 -28 0
-25 -26 -27 0
-30 -31 -32 0
-29 -31 -32 0
-29 -30 -32 0
-29 -30 -31 0
-34 -35 -36 0
-33 -35 -36 0
-33 -34 -36 0
-33 -34 -35 0
-38 -39 -40 0
-37 -39 -40 0
-37 -38 -40 0
-37 -38 -39 0
-42 -43 -44 0
-41 -43 -44 0
-41 -42 -44 0
-41 -42 -43 0
-46 -47 -48 0
-45 -47 -48 0
-45 -46 -48 0
-45 -46 -47 0
-50 -51 -52 0
-49 -51 -52 0
-49 -50 -52 0
-49 -50 -51 0
-54 -55 -56 0
-53 -55 -56 0
-53 -54 -56 0
-53 -54 -55 0
-58 -59 -60 0
-57 -59 -60 0
-57 -58 -60 0
-57 -58 -59 0
-62 -63 -64 0
-61 -63 -64 0
-61 -62 -64 0
-61 -62 -63 0
-66 -67 -68 0
-65 -67 -68 0
-65 -66 -68 0
-65 -66 -67 0
-70 -71 -72 0
-69 -71 -72 0
-69 -70 -72 0
-69 -70 -71 0
-74 -75 -76 0
-73 -75 -76 0
-73 -74 -76 0
-73 -74 -75 0
-78 -79 -80 0
-77 -79 -80 0
-77 -78 -80 0
-77 -78 -79 0
-82 -83 -84 0
-81 -83 -84 0
-81 -82 -84 0
-81 -82 -83 0
-85 -86 -87 0
-85 -86 -88 0
-85 -86 -89 0
-85 -87 -88 0
-85 -87 -89 0
-85 -88 -89 0
-86 -87 -88 0
-86 -87 -89 0
-86 -88 -89 0
-87 -88 -89 0
7 66 49 0
79 66 49 0
79 7 49 0
79 7 66 0
72 51 20 0
2 51 20 0
2 72 20 0
2 72 51 0
39 52 84 0
16 52 84 0
16 39 84 0
16 39 52 0
56 87 23 0
38 87 23 0
38 56 23 0
38 56 87 0
47 59 14 0
64 59 14 0
64 47 14 0
64 47 59 0
83 43 54 0
80 43 54 0
80 83 54 0
80 83 43 0
85 15 19 0
75 15 19 0
75 85 19 0
75 85 15 0
42 74 9 0
35 74 9 0
35 42 9 0
35 42 74 0
81 34 46 0
88 34 46 0
88 81 46 0
88 81 34 0
31 33 55 0
17 33 55 0
17 31 55 0
17 31 33 0
44 69 58 0
89 69 58 0
89 44 58 0
89 44 69 0
24 27 18 0
10 27 18 0
10 24 18 0
10 24 27 0
11 67 40 0
29 67 40 0
29 11 40 0
29 11 67 0
70 65 76 0
62 65 76 0
62 70 76 0
62 70 65 0
21 4 48 0
32 4 48 0
32 21 48 0
32 21 4 0
45 25 41 0
8 25 41 0
8 45 41 0
8 45 25 0
22 68 82 0
60 68 82 0
60 22 82 0
60 22 68 0
73 26 78 0
37 26 78 0
37 73 78 0
37 73 26 0
71 13 5 0
36 13 5 0
36 71 5 0
36 71 13 0
57 6 1 0
53 6 1 0
53 57 1 0
53 57 6 0
12 63 77 0
3 63 77 0
3 12 77 0
3 12 63 0
50 28 30 0
50 28 61 0
50 28 86 0
50 30 61 0
50 30 86 0
50 61 86 0
28 30 61 0
28 30 86 0
28 61 86 0
30 61 86 0
